p td 1000 2892 
162 2
162 5
162 14
162 24
162 27
162 36
162 47
162 50
162 57
162 64
162 67
162 70
162 72
162 76
162 82
162 84
162 85
162 92
162 94
162 97
162 102
162 105
162 106
162 107
162 108
162 114
162 123
162 124
162 126
162 128
162 130
162 137
162 141
162 145
162 146
162 150
162 155
162 156
162 161
162 166
162 172
162 175
162 176
162 177
162 182
162 183
162 189
162 191
162 192
162 193
162 206
162 212
162 220
162 228
162 231
162 234
162 238
162 241
162 242
162 244
162 245
162 260
162 262
162 265
162 278
162 287
162 288
162 295
162 299
162 300
162 310
162 311
162 315
162 338
162 350
162 351
162 356
162 367
162 376
162 385
162 389
162 391
162 406
162 407
162 408
162 411
162 412
162 413
162 415
162 418
162 421
162 422
162 423
162 433
162 435
162 446
162 454
162 460
162 466
162 471
162 472
162 474
162 488
162 491
162 493
162 494
162 500
162 503
162 511
162 516
162 520
162 524
162 526
162 533
162 554
162 558
162 561
162 562
162 563
162 565
162 567
162 572
162 574
162 575
162 580
162 583
162 591
162 597
162 599
162 601
162 615
162 624
162 636
162 643
162 645
162 661
162 666
162 667
162 670
162 671
162 686
162 692
162 693
162 695
162 696
162 698
162 706
162 709
162 713
162 719
162 720
162 725
162 729
162 730
162 735
162 736
162 745
162 748
162 756
162 759
162 761
162 768
162 770
162 771
162 772
162 776
162 779
162 784
162 790
162 802
162 808
162 809
162 810
162 819
162 820
162 821
162 822
162 828
162 829
162 830
162 831
162 832
162 835
162 837
162 839
162 842
162 844
162 849
162 854
162 856
162 877
162 896
162 901
162 903
162 904
162 905
162 914
162 915
162 916
162 917
162 923
162 924
162 925
162 928
162 937
162 941
162 943
162 968
162 970
162 973
162 976
162 981
162 983
162 988
162 996
162 999
455 6
455 7
455 29
455 40
455 42
455 49
455 51
455 58
455 64
455 67
455 72
455 90
455 92
455 97
455 103
455 114
455 118
455 132
455 137
455 144
455 155
455 160
455 165
455 170
455 173
455 174
455 175
455 178
455 181
455 182
455 194
455 196
455 197
455 207
455 211
455 214
455 215
455 220
455 223
455 224
455 231
455 239
455 242
455 249
455 252
455 265
455 267
455 268
455 270
455 274
455 277
455 278
455 285
455 286
455 290
455 291
455 295
455 307
455 310
455 314
455 318
455 322
455 323
455 332
455 337
455 338
455 342
455 344
455 346
455 353
455 361
455 362
455 374
455 381
455 382
455 396
455 402
455 404
455 406
455 408
455 410
455 412
455 414
455 422
455 423
455 424
455 427
455 432
455 433
455 442
455 448
455 450
455 455
455 458
455 466
455 469
455 470
455 473
455 474
455 481
455 482
455 487
455 489
455 490
455 494
455 498
455 511
455 517
455 520
455 523
455 525
455 530
455 536
455 537
455 538
455 543
455 548
455 549
455 557
455 561
455 564
455 565
455 570
455 574
455 599
455 610
455 614
455 615
455 617
455 627
455 630
455 631
455 632
455 633
455 640
455 641
455 644
455 645
455 651
455 652
455 656
455 661
455 664
455 677
455 693
455 702
455 706
455 711
455 714
455 719
455 725
455 729
455 731
455 732
455 733
455 740
455 748
455 749
455 752
455 753
455 754
455 756
455 757
455 758
455 766
455 768
455 770
455 776
455 778
455 780
455 785
455 786
455 787
455 798
455 800
455 803
455 808
455 814
455 834
455 835
455 837
455 839
455 841
455 844
455 861
455 866
455 870
455 873
455 875
455 880
455 881
455 892
455 907
455 912
455 916
455 924
455 928
455 929
455 930
455 931
455 937
455 939
455 954
455 960
455 961
455 963
455 977
455 979
455 980
455 992
455 994
946 2
946 10
946 12
946 21
946 32
946 38
946 44
946 45
946 46
946 47
946 49
946 55
946 59
946 69
946 71
946 72
946 74
946 76
946 77
946 82
946 85
946 93
946 95
946 99
946 101
946 107
946 108
946 110
946 119
946 133
946 136
946 137
946 138
946 140
946 145
946 147
946 151
946 161
946 164
946 169
946 173
946 176
946 189
946 190
946 196
946 200
946 204
946 206
946 209
946 217
946 232
946 241
946 244
946 252
946 254
946 256
946 260
946 265
946 271
946 273
946 279
946 293
946 295
946 296
946 301
946 306
946 307
946 308
946 313
946 318
946 324
946 334
946 343
946 345
946 352
946 358
946 364
946 366
946 396
946 397
946 406
946 410
946 414
946 415
946 428
946 434
946 449
946 450
946 455
946 467
946 468
946 469
946 475
946 483
946 489
946 490
946 507
946 508
946 515
946 516
946 518
946 519
946 533
946 538
946 540
946 551
946 552
946 557
946 559
946 564
946 565
946 567
946 568
946 578
946 579
946 591
946 593
946 594
946 595
946 598
946 601
946 620
946 633
946 658
946 662
946 668
946 671
946 673
946 692
946 694
946 697
946 705
946 711
946 714
946 723
946 727
946 729
946 735
946 736
946 738
946 739
946 744
946 750
946 751
946 753
946 757
946 760
946 762
946 763
946 764
946 772
946 780
946 781
946 794
946 795
946 798
946 803
946 809
946 810
946 811
946 814
946 815
946 831
946 836
946 837
946 839
946 845
946 857
946 863
946 867
946 870
946 876
946 880
946 881
946 886
946 889
946 901
946 903
946 904
946 907
946 912
946 915
946 918
946 923
946 928
946 929
946 933
946 955
946 956
946 957
946 961
946 965
946 967
946 974
946 988
946 991
946 996
946 997
946 998
270 4
270 6
270 8
270 9
270 10
270 11
270 14
270 18
270 25
270 26
270 27
270 42
270 43
270 45
270 50
270 60
270 65
270 67
270 68
270 69
270 70
270 78
270 79
270 80
270 86
270 88
270 89
270 90
270 91
270 101
270 104
270 115
270 125
270 127
270 129
270 135
270 141
270 147
270 149
270 162
270 163
270 165
270 171
270 176
270 177
270 181
270 188
270 193
270 205
270 220
270 221
270 226
270 243
270 247
270 250
270 252
270 270
270 279
270 281
270 303
270 307
270 309
270 317
270 318
270 321
270 324
270 325
270 329
270 332
270 334
270 337
270 338
270 339
270 345
270 346
270 350
270 352
270 355
270 363
270 373
270 375
270 379
270 380
270 391
270 392
270 394
270 399
270 403
270 409
270 412
270 413
270 420
270 421
270 432
270 440
270 441
270 442
270 443
270 446
270 447
270 456
270 458
270 462
270 466
270 467
270 478
270 482
270 489
270 508
270 510
270 527
270 529
270 535
270 536
270 541
270 545
270 550
270 554
270 562
270 567
270 570
270 573
270 578
270 592
270 601
270 602
270 603
270 612
270 637
270 638
270 639
270 646
270 648
270 650
270 657
270 659
270 661
270 663
270 669
270 671
270 672
270 673
270 680
270 682
270 687
270 688
270 690
270 696
270 705
270 706
270 707
270 723
270 727
270 728
270 735
270 742
270 751
270 752
270 753
270 756
270 757
270 759
270 761
270 762
270 763
270 776
270 781
270 783
270 793
270 796
270 800
270 804
270 805
270 807
270 812
270 822
270 823
270 828
270 830
270 831
270 833
270 838
270 845
270 852
270 856
270 858
270 860
270 862
270 876
270 877
270 881
270 884
270 888
270 891
270 893
270 895
270 896
270 903
270 914
270 920
270 929
270 930
270 931
270 938
270 955
270 960
270 965
270 966
270 971
270 972
270 974
270 978
270 981
270 993
270 998
270 999
885 8
885 9
885 19
885 23
885 29
885 32
885 46
885 48
885 49
885 56
885 62
885 63
885 64
885 76
885 78
885 79
885 80
885 82
885 87
885 91
885 92
885 95
885 100
885 102
885 105
885 126
885 127
885 128
885 130
885 135
885 138
885 140
885 142
885 159
885 162
885 164
885 167
885 171
885 173
885 174
885 175
885 183
885 186
885 190
885 201
885 215
885 218
885 223
885 228
885 231
885 235
885 240
885 243
885 250
885 251
885 252
885 257
885 262
885 263
885 271
885 272
885 279
885 290
885 292
885 297
885 301
885 303
885 307
885 319
885 323
885 326
885 328
885 331
885 332
885 335
885 347
885 351
885 353
885 358
885 359
885 362
885 376
885 377
885 380
885 388
885 390
885 395
885 407
885 410
885 419
885 428
885 444
885 452
885 457
885 465
885 466
885 467
885 468
885 469
885 473
885 475
885 480
885 492
885 495
885 507
885 508
885 512
885 523
885 525
885 526
885 529
885 533
885 534
885 547
885 556
885 563
885 574
885 581
885 589
885 590
885 599
885 611
885 614
885 620
885 621
885 622
885 628
885 633
885 642
885 645
885 646
885 650
885 651
885 656
885 662
885 664
885 667
885 668
885 674
885 678
885 679
885 686
885 688
885 689
885 698
885 701
885 704
885 709
885 712
885 721
885 725
885 733
885 736
885 744
885 747
885 748
885 769
885 772
885 776
885 783
885 788
885 794
885 813
885 817
885 835
885 837
885 838
885 839
885 842
885 843
885 847
885 849
885 851
885 854
885 859
885 864
885 867
885 871
885 873
885 876
885 881
885 902
885 910
885 911
885 919
885 927
885 935
885 937
885 942
885 943
885 944
885 957
885 967
885 968
885 974
885 977
885 986
885 988
885 994
885 998
885 1000
285 2
285 4
285 16
285 20
285 21
285 26
285 30
285 40
285 45
285 46
285 49
285 50
285 51
285 55
285 59
285 60
285 62
285 70
285 72
285 81
285 83
285 88
285 99
285 104
285 107
285 115
285 124
285 137
285 145
285 158
285 161
285 163
285 168
285 191
285 192
285 195
285 197
285 203
285 213
285 224
285 227
285 236
285 237
285 244
285 249
285 250
285 254
285 256
285 257
285 258
285 277
285 281
285 287
285 290
285 291
285 292
285 299
285 307
285 312
285 313
285 314
285 316
285 321
285 327
285 334
285 336
285 340
285 356
285 360
285 365
285 376
285 378
285 388
285 396
285 399
285 400
285 402
285 407
285 413
285 415
285 421
285 424
285 428
285 433
285 435
285 437
285 443
285 445
285 455
285 462
285 463
285 464
285 468
285 470
285 474
285 488
285 490
285 491
285 492
285 496
285 499
285 502
285 507
285 508
285 512
285 513
285 515
285 518
285 520
285 524
285 542
285 547
285 550
285 556
285 560
285 561
285 565
285 570
285 571
285 576
285 595
285 596
285 599
285 601
285 611
285 612
285 616
285 637
285 648
285 651
285 654
285 659
285 671
285 675
285 679
285 685
285 687
285 688
285 690
285 695
285 696
285 697
285 698
285 704
285 710
285 726
285 729
285 739
285 743
285 744
285 745
285 746
285 748
285 749
285 753
285 757
285 759
285 762
285 766
285 767
285 769
285 776
285 785
285 789
285 797
285 799
285 800
285 805
285 806
285 814
285 821
285 822
285 829
285 836
285 837
285 841
285 842
285 844
285 849
285 856
285 859
285 861
285 871
285 876
285 878
285 880
285 884
285 886
285 888
285 891
285 892
285 903
285 905
285 906
285 914
285 917
285 924
285 925
285 935
285 938
285 939
285 940
285 943
285 945
285 948
285 949
285 951
285 952
285 953
285 957
285 959
285 960
285 963
285 964
285 980
285 982
285 987
285 988
285 993
285 994
285 995
869 2
869 3
869 18
869 20
869 24
869 28
869 39
869 41
869 44
869 45
869 46
869 49
869 53
869 55
869 64
869 80
869 84
869 96
869 97
869 104
869 107
869 108
869 116
869 117
869 131
869 132
869 134
869 149
869 151
869 154
869 159
869 160
869 164
869 167
869 169
869 173
869 174
869 178
869 180
869 188
869 192
869 193
869 203
869 207
869 222
869 241
869 244
869 250
869 254
869 266
869 276
869 281
869 284
869 285
869 287
869 299
869 301
869 303
869 305
869 306
869 317
869 319
869 322
869 332
869 333
869 345
869 346
869 347
869 349
869 350
869 358
869 359
869 361
869 363
869 372
869 377
869 395
869 404
869 406
869 425
869 427
869 431
869 435
869 437
869 438
869 439
869 442
869 445
869 446
869 455
869 458
869 466
869 474
869 476
869 485
869 487
869 491
869 492
869 503
869 508
869 510
869 523
869 525
869 537
869 539
869 540
869 547
869 548
869 555
869 562
869 565
869 572
869 575
869 578
869 586
869 589
869 596
869 597
869 599
869 606
869 616
869 618
869 621
869 640
869 642
869 643
869 670
869 673
869 680
869 681
869 683
869 685
869 692
869 694
869 701
869 704
869 709
869 725
869 726
869 730
869 733
869 737
869 739
869 742
869 743
869 744
869 748
869 749
869 753
869 760
869 762
869 763
869 766
869 767
869 772
869 775
869 782
869 783
869 788
869 792
869 795
869 796
869 799
869 803
869 818
869 820
869 826
869 828
869 838
869 839
869 845
869 847
869 850
869 853
869 855
869 857
869 863
869 871
869 876
869 879
869 881
869 883
869 884
869 887
869 896
869 898
869 904
869 905
869 923
869 924
869 926
869 927
869 931
869 932
869 935
869 941
869 945
869 946
869 949
869 951
869 953
869 956
869 957
869 963
869 969
869 972
869 978
869 985
869 986
869 999
869 1000
585 7
585 16
585 18
585 23
585 27
585 29
585 31
585 36
585 44
585 61
585 63
585 68
585 73
585 76
585 81
585 82
585 87
585 98
585 99
585 109
585 113
585 116
585 121
585 123
585 132
585 140
585 142
585 148
585 149
585 151
585 153
585 154
585 157
585 170
585 177
585 183
585 184
585 203
585 205
585 208
585 212
585 218
585 224
585 225
585 227
585 230
585 231
585 233
585 234
585 239
585 255
585 256
585 261
585 262
585 267
585 268
585 269
585 273
585 274
585 280
585 283
585 284
585 287
585 292
585 296
585 300
585 304
585 305
585 310
585 320
585 324
585 326
585 328
585 330
585 334
585 339
585 344
585 345
585 350
585 357
585 359
585 361
585 366
585 371
585 372
585 374
585 386
585 389
585 390
585 394
585 401
585 405
585 406
585 420
585 423
585 426
585 431
585 435
585 440
585 441
585 447
585 449
585 453
585 460
585 462
585 463
585 464
585 467
585 472
585 478
585 480
585 486
585 494
585 499
585 500
585 503
585 510
585 516
585 517
585 527
585 530
585 534
585 535
585 540
585 542
585 557
585 565
585 569
585 570
585 574
585 576
585 581
585 582
585 584
585 585
585 586
585 589
585 593
585 594
585 607
585 609
585 615
585 619
585 621
585 623
585 626
585 627
585 628
585 632
585 651
585 655
585 662
585 672
585 681
585 682
585 703
585 706
585 719
585 720
585 721
585 723
585 730
585 738
585 742
585 744
585 750
585 752
585 754
585 755
585 762
585 763
585 768
585 770
585 774
585 775
585 776
585 777
585 785
585 787
585 792
585 795
585 810
585 811
585 818
585 823
585 825
585 829
585 836
585 840
585 841
585 843
585 847
585 850
585 870
585 872
585 874
585 876
585 887
585 891
585 896
585 900
585 904
585 911
585 912
585 918
585 921
585 931
585 932
585 937
585 949
585 959
585 962
585 964
585 970
585 977
585 982
585 983
585 986
585 994
538 1
538 5
538 6
538 16
538 17
538 21
538 23
538 25
538 34
538 36
538 37
538 39
538 41
538 47
538 50
538 53
538 59
538 61
538 80
538 84
538 85
538 90
538 93
538 94
538 97
538 98
538 102
538 113
538 115
538 119
538 120
538 121
538 124
538 125
538 138
538 142
538 147
538 149
538 150
538 151
538 153
538 155
538 156
538 160
538 162
538 165
538 167
538 175
538 181
538 193
538 196
538 211
538 222
538 223
538 232
538 235
538 237
538 238
538 244
538 246
538 259
538 264
538 273
538 281
538 286
538 287
538 289
538 294
538 295
538 300
538 301
538 310
538 314
538 316
538 317
538 323
538 332
538 334
538 336
538 344
538 349
538 350
538 356
538 358
538 362
538 365
538 367
538 370
538 373
538 374
538 413
538 418
538 429
538 439
538 440
538 448
538 449
538 461
538 463
538 466
538 475
538 480
538 495
538 496
538 500
538 502
538 505
538 506
538 508
538 510
538 519
538 523
538 525
538 543
538 552
538 557
538 565
538 569
538 570
538 572
538 578
538 581
538 582
538 585
538 587
538 591
538 594
538 598
538 602
538 604
538 608
538 609
538 613
538 614
538 615
538 617
538 622
538 625
538 630
538 635
538 639
538 640
538 659
538 663
538 668
538 680
538 683
538 684
538 690
538 696
538 697
538 708
538 714
538 726
538 732
538 734
538 739
538 745
538 749
538 753
538 755
538 764
538 766
538 767
538 779
538 793
538 795
538 797
538 803
538 805
538 807
538 808
538 825
538 828
538 831
538 834
538 836
538 837
538 838
538 850
538 853
538 854
538 856
538 865
538 878
538 895
538 904
538 907
538 917
538 925
538 927
538 928
538 929
538 932
538 933
538 939
538 943
538 944
538 947
538 952
538 955
538 957
538 964
538 967
538 979
538 981
538 984
538 986
538 987
538 994
538 997
538 998
853 2
853 3
853 5
853 25
853 26
853 27
853 33
853 35
853 37
853 43
853 46
853 50
853 51
853 56
853 70
853 104
853 106
853 117
853 119
853 123
853 133
853 140
853 146
853 148
853 149
853 152
853 165
853 171
853 174
853 175
853 178
853 185
853 194
853 196
853 198
853 200
853 205
853 211
853 214
853 216
853 218
853 220
853 222
853 225
853 235
853 236
853 242
853 244
853 258
853 260
853 262
853 266
853 267
853 282
853 288
853 289
853 318
853 324
853 328
853 331
853 342
853 344
853 347
853 348
853 351
853 352
853 354
853 362
853 373
853 376
853 379
853 390
853 393
853 394
853 395
853 417
853 420
853 426
853 428
853 431
853 437
853 442
853 454
853 470
853 474
853 475
853 478
853 481
853 482
853 485
853 486
853 492
853 493
853 495
853 496
853 498
853 513
853 514
853 518
853 519
853 538
853 541
853 545
853 560
853 561
853 564
853 566
853 583
853 584
853 592
853 593
853 594
853 596
853 597
853 604
853 606
853 612
853 614
853 628
853 630
853 637
853 641
853 655
853 665
853 666
853 667
853 673
853 677
853 684
853 686
853 693
853 694
853 706
853 709
853 713
853 714
853 720
853 723
853 726
853 741
853 750
853 755
853 764
853 767
853 776
853 791
853 793
853 798
853 819
853 841
853 853
853 860
853 861
853 866
853 868
853 871
853 878
853 879
853 880
853 882
853 900
853 901
853 909
853 910
853 916
853 917
853 930
853 939
853 940
853 946
853 949
853 964
853 965
853 975
853 986
853 991
853 997
135 1
135 6
135 7
135 15
135 25
135 26
135 32
135 36
135 51
135 52
135 60
135 61
135 76
135 82
135 85
135 94
135 97
135 99
135 113
135 116
135 117
135 124
135 128
135 136
135 140
135 144
135 146
135 150
135 161
135 174
135 199
135 206
135 211
135 217
135 224
135 227
135 229
135 239
135 240
135 242
135 248
135 252
135 258
135 264
135 265
135 267
135 268
135 271
135 272
135 273
135 278
135 281
135 288
135 289
135 291
135 293
135 310
135 317
135 318
135 321
135 336
135 337
135 341
135 352
135 363
135 364
135 375
135 378
135 379
135 385
135 388
135 390
135 418
135 419
135 423
135 425
135 426
135 427
135 430
135 434
135 436
135 438
135 440
135 444
135 451
135 463
135 471
135 478
135 483
135 487
135 497
135 498
135 505
135 510
135 516
135 520
135 523
135 524
135 525
135 528
135 536
135 540
135 546
135 552
135 554
135 566
135 575
135 591
135 597
135 601
135 612
135 614
135 619
135 622
135 624
135 629
135 633
135 644
135 648
135 653
135 658
135 668
135 673
135 674
135 678
135 691
135 692
135 701
135 705
135 709
135 721
135 722
135 723
135 725
135 729
135 742
135 743
135 744
135 749
135 752
135 753
135 770
135 772
135 779
135 780
135 785
135 786
135 787
135 788
135 789
135 791
135 795
135 797
135 804
135 806
135 810
135 823
135 825
135 828
135 834
135 841
135 844
135 845
135 847
135 850
135 857
135 863
135 864
135 866
135 869
135 882
135 895
135 899
135 916
135 924
135 927
135 933
135 935
135 939
135 945
135 948
135 949
135 956
135 957
135 958
135 969
135 975
135 977
639 4
639 5
639 11
639 12
639 14
639 16
639 17
639 21
639 22
639 24
639 27
639 32
639 37
639 39
639 49
639 50
639 51
639 52
639 54
639 61
639 62
639 64
639 67
639 70
639 72
639 76
639 77
639 82
639 87
639 88
639 90
639 91
639 94
639 98
639 101
639 102
639 103
639 105
639 109
639 114
639 119
639 129
639 140
639 141
639 146
639 147
639 151
639 169
639 170
639 179
639 183
639 184
639 185
639 192
639 196
639 198
639 203
639 204
639 207
639 212
639 215
639 226
639 235
639 237
639 239
639 241
639 248
639 260
639 261
639 262
639 265
639 266
639 267
639 268
639 272
639 276
639 277
639 281
639 297
639 317
639 318
639 339
639 342
639 346
639 349
639 350
639 355
639 360
639 363
639 367
639 368
639 370
639 371
639 376
639 379
639 380
639 387
639 388
639 389
639 390
639 392
639 393
639 402
639 406
639 409
639 414
639 415
639 416
639 424
639 425
639 432
639 437
639 446
639 447
639 451
639 454
639 457
639 460
639 462
639 466
639 475
639 477
639 484
639 487
639 489
639 491
639 495
639 510
639 512
639 514
639 518
639 519
639 521
639 530
639 531
639 545
639 546
639 549
639 550
639 551
639 555
639 558
639 563
639 568
639 573
639 574
639 578
639 581
639 587
639 588
639 594
639 596
639 597
639 602
639 603
639 607
639 609
639 613
639 617
639 621
639 622
639 623
639 626
639 628
639 629
639 639
639 641
639 642
639 647
639 651
639 674
639 677
639 678
639 684
639 686
639 689
639 696
639 700
639 704
639 707
639 712
639 717
639 723
639 724
639 727
639 728
639 739
639 745
639 754
639 760
639 767
639 774
639 781
639 783
639 796
639 799
639 804
639 810
639 829
639 833
639 837
639 840
639 843
639 871
639 872
639 885
639 887
639 888
639 892
639 902
639 904
639 907
639 917
639 924
639 927
639 928
639 948
639 949
639 963
639 969
639 972
639 975
639 976
639 981
639 982
983 7
983 21
983 23
983 27
983 28
983 31
983 32
983 39
983 48
983 52
983 54
983 57
983 76
983 80
983 82
983 106
983 107
983 114
983 116
983 119
983 122
983 129
983 131
983 132
983 143
983 145
983 155
983 158
983 160
983 162
983 168
983 172
983 181
983 184
983 187
983 188
983 192
983 198
983 201
983 202
983 211
983 214
983 216
983 217
983 218
983 220
983 227
983 232
983 234
983 237
983 241
983 244
983 246
983 251
983 253
983 260
983 262
983 264
983 265
983 267
983 281
983 295
983 306
983 307
983 308
983 315
983 319
983 320
983 324
983 325
983 329
983 330
983 331
983 335
983 356
983 358
983 362
983 367
983 369
983 375
983 381
983 382
983 385
983 388
983 391
983 397
983 398
983 403
983 416
983 420
983 422
983 424
983 427
983 435
983 446
983 460
983 461
983 464
983 468
983 473
983 474
983 479
983 489
983 491
983 497
983 505
983 509
983 514
983 516
983 520
983 524
983 525
983 534
983 538
983 543
983 549
983 569
983 579
983 583
983 599
983 608
983 611
983 612
983 633
983 634
983 636
983 641
983 643
983 648
983 650
983 652
983 661
983 668
983 676
983 678
983 683
983 688
983 690
983 696
983 698
983 700
983 704
983 705
983 706
983 710
983 713
983 719
983 723
983 725
983 729
983 738
983 740
983 747
983 757
983 761
983 762
983 768
983 769
983 776
983 783
983 789
983 790
983 804
983 812
983 813
983 815
983 828
983 834
983 841
983 846
983 850
983 861
983 867
983 871
983 882
983 885
983 886
983 888
983 890
983 893
983 902
983 906
983 919
983 928
983 940
983 957
983 959
983 960
983 962
983 967
983 971
983 977
983 986
983 987
983 988
863 2
863 3
863 4
863 5
863 9
863 12
863 14
863 18
863 35
863 37
863 40
863 43
863 57
863 66
863 67
863 68
863 77
863 79
863 84
863 89
863 90
863 93
863 110
863 116
863 120
863 121
863 136
863 137
863 139
863 140
863 156
863 161
863 165
863 173
863 176
863 179
863 189
863 190
863 198
863 204
863 209
863 210
863 213
863 218
863 219
863 230
863 231
863 237
863 240
863 253
863 254
863 258
863 263
863 268
863 272
863 275
863 289
863 291
863 294
863 299
863 301
863 307
863 317
863 322
863 326
863 329
863 330
863 332
863 335
863 336
863 342
863 362
863 364
863 388
863 391
863 400
863 405
863 406
863 409
863 413
863 421
863 423
863 427
863 438
863 456
863 460
863 464
863 484
863 486
863 487
863 497
863 502
863 508
863 519
863 520
863 523
863 528
863 533
863 538
863 539
863 542
863 544
863 545
863 558
863 561
863 564
863 570
863 572
863 579
863 597
863 598
863 605
863 608
863 611
863 619
863 629
863 630
863 631
863 633
863 634
863 635
863 636
863 644
863 647
863 652
863 655
863 656
863 661
863 663
863 666
863 678
863 680
863 691
863 694
863 702
863 706
863 709
863 713
863 718
863 723
863 727
863 740
863 741
863 746
863 752
863 753
863 757
863 758
863 762
863 770
863 774
863 777
863 781
863 784
863 787
863 795
863 799
863 801
863 802
863 807
863 808
863 809
863 811
863 814
863 815
863 817
863 822
863 824
863 825
863 826
863 834
863 837
863 845
863 846
863 853
863 854
863 865
863 868
863 875
863 881
863 889
863 890
863 893
863 899
863 900
863 926
863 927
863 935
863 937
863 940
863 941
863 949
863 950
863 951
863 964
863 975
863 976
863 977
863 978
863 995
863 997
